p wcnf 162 81 82 
1 137 96 0 
1 68 53 0 
1 6 141 0 
1 -15 -45 0 
1 126 -5 0 
1 147 136 0 
1 -77 107 0 
1 141 -9 0 
1 -80 64 0 
1 -58 21 0 
1 -2 62 0 
1 -110 -126 0 
1 -137 -129 0 
1 73 40 0 
1 -101 -38 0 
1 -29 -38 0 
1 -87 68 0 
1 -89 87 0 
1 91 -152 0 
1 95 -83 0 
1 15 -70 0 
1 -85 -58 0 
1 -121 -96 0 
1 -134 -54 0 
1 -76 -119 0 
1 126 -24 0 
1 38 78 0 
1 39 -71 0 
1 143 -54 0 
1 58 -14 0 
1 -86 -117 0 
1 -106 -88 0 
1 127 -54 0 
1 -76 -134 0 
1 -65 -78 0 
1 -149 152 0 
1 71 -57 0 
1 -10 -82 0 
1 112 119 0 
1 -73 39 0 
1 -132 -40 0 
1 -15 63 0 
1 -99 126 0 
1 85 -14 0 
1 -129 -147 0 
1 28 -157 0 
1 98 -49 0 
1 -136 36 0 
1 -146 -60 0 
1 38 109 0 
1 118 150 0 
1 43 -5 0 
1 -10 -110 0 
1 -107 -31 0 
1 139 119 0 
1 -129 66 0 
1 -100 -152 0 
1 -24 -72 0 
1 24 -75 0 
1 27 119 0 
1 -110 -145 0 
1 91 -12 0 
1 73 -127 0 
1 1 156 0 
1 -154 -56 0 
1 -16 -65 0 
1 9 92 0 
1 157 80 0 
1 -134 143 0 
1 123 13 0 
1 -154 117 0 
1 -15 13 0 
1 -17 123 0 
1 68 113 0 
1 152 158 0 
1 95 -135 0 
1 -161 82 0 
1 -56 13 0 
1 62 56 0 
1 54 63 0 
1 -104 103 0 
